60
1 0 26
2 0 6
2 1 7
3 0 11
3 1 96
3 2 6
4 0 32
4 1 20
4 2 50
4 3 100
5 0 108
5 1 119
5 2 66
5 3 55
5 4 45
6 0 105
6 1 7
6 2 63
6 3 10
6 4 101
6 5 54
7 0 62
7 1 17
7 2 75
7 3 5
7 4 25
7 5 111
7 6 99
8 0 105
8 1 82
8 2 82
8 3 72
8 4 76
8 5 15
8 6 32
8 7 67
9 0 105
9 1 59
9 2 109
9 3 78
9 4 45
9 5 78
9 6 37
9 7 21
9 8 52
10 0 76
10 1 84
10 2 39
10 3 44
10 4 13
10 5 74
10 6 99
10 7 65
10 8 17
10 9 47
11 0 67
11 1 85
11 2 111
11 3 94
11 4 28
11 5 61
11 6 11
11 7 21
11 8 72
11 9 41
11 10 72
12 0 24
12 1 72
12 2 6
12 3 60
12 4 107
12 5 73
12 6 120
12 7 2
12 8 60
12 9 64
12 10 79
12 11 83
13 0 90
13 1 60
13 2 75
13 3 72
13 4 16
13 5 49
13 6 89
13 7 98
13 8 49
13 9 56
13 10 98
13 11 90
13 12 71
14 0 83
14 1 119
14 2 109
14 3 112
14 4 87
14 5 98
14 6 26
14 7 93
14 8 87
14 9 70
14 10 9
14 11 26
14 12 116
14 13 59
15 0 81
15 1 2
15 2 57
15 3 74
15 4 28
15 5 25
15 6 117
15 7 103
15 8 28
15 9 27
15 10 84
15 11 36
15 12 107
15 13 74
15 14 6
16 0 71
16 1 27
16 2 81
16 3 15
16 4 52
16 5 76
16 6 54
16 7 62
16 8 12
16 9 101
16 10 120
16 11 3
16 12 83
16 13 64
16 14 116
16 15 5
17 0 70
17 1 11
17 2 86
17 3 100
17 4 12
17 5 32
17 6 68
17 7 9
17 8 73
17 9 76
17 10 3
17 11 16
17 12 40
17 13 31
17 14 117
17 15 11
17 16 90
18 0 104
18 1 17
18 2 74
18 3 34
18 4 49
18 5 52
18 6 112
18 7 84
18 8 110
18 9 102
18 10 71
18 11 46
18 12 110
18 13 24
18 14 113
18 15 51
18 16 111
18 17 79
19 0 36
19 1 23
19 2 81
19 3 1
19 4 32
19 5 97
19 6 21
19 7 14
19 8 97
19 9 90
19 10 89
19 11 103
19 12 105
19 13 45
19 14 67
19 15 91
19 16 98
19 17 31
19 18 52
20 0 92
20 1 94
20 2 58
20 3 103
20 4 28
20 5 110
20 6 51
20 7 53
20 8 102
20 9 118
20 10 64
20 11 45
20 12 5
20 13 95
20 14 23
20 15 67
20 16 41
20 17 68
20 18 89
20 19 47
21 0 50
21 1 114
21 2 17
21 3 62
21 4 120
21 5 72
21 6 106
21 7 113
21 8 103
21 9 36
21 10 25
21 11 41
21 12 49
21 13 19
21 14 72
21 15 54
21 16 100
21 17 35
21 18 25
21 19 102
21 20 77
22 0 9
22 1 82
22 2 78
22 3 10
22 4 111
22 5 63
22 6 84
22 7 105
22 8 114
22 9 110
22 10 51
22 11 13
22 12 35
22 13 81
22 14 62
22 15 42
22 16 90
22 17 106
22 18 104
22 19 32
22 20 3
22 21 11
23 0 75
23 1 31
23 2 93
23 3 47
23 4 30
23 5 4
23 6 27
23 7 81
23 8 103
23 9 120
23 10 20
23 11 96
23 12 39
23 13 112
23 14 40
23 15 75
23 16 109
23 17 43
23 18 91
23 19 115
23 20 45
23 21 64
23 22 56
24 0 6
24 1 99
24 2 4
24 3 67
24 4 11
24 5 89
24 6 24
24 7 85
24 8 98
24 9 6
24 10 15
24 11 53
24 12 33
24 13 4
24 14 104
24 15 104
24 16 27
24 17 64
24 18 116
24 19 72
24 20 105
24 21 90
24 22 71
24 23 21
25 0 103
25 1 58
25 2 103
25 3 14
25 4 67
25 5 90
25 6 13
25 7 54
25 8 40
25 9 13
25 10 25
25 11 43
25 12 29
25 13 119
25 14 19
25 15 28
25 16 22
25 17 3
25 18 69
25 19 54
25 20 79
25 21 16
25 22 103
25 23 42
25 24 72
26 0 87
26 1 7
26 2 66
26 3 105
26 4 61
26 5 95
26 6 52
26 7 53
26 8 69
26 9 81
26 10 38
26 11 42
26 12 102
26 13 25
26 14 113
26 15 113
26 16 118
26 17 1
26 18 2
26 19 2
26 20 49
26 21 102
26 22 11
26 23 93
26 24 8
26 25 104
27 0 113
27 1 105
27 2 109
27 3 116
27 4 33
27 5 101
27 6 53
27 7 30
27 8 53
27 9 76
27 10 90
27 11 113
27 12 49
27 13 37
27 14 77
27 15 32
27 16 27
27 17 97
27 18 20
27 19 12
27 20 91
27 21 58
27 22 57
27 23 53
27 24 42
27 25 107
27 26 75
28 0 10
28 1 87
28 2 106
28 3 17
28 4 104
28 5 45
28 6 6
28 7 12
28 8 58
28 9 7
28 10 15
28 11 36
28 12 95
28 13 38
28 14 95
28 15 77
28 16 119
28 17 9
28 18 7
28 19 94
28 20 16
28 21 87
28 22 22
28 23 98
28 24 100
28 25 34
28 26 84
28 27 44
29 0 34
29 1 59
29 2 14
29 3 56
29 4 84
29 5 119
29 6 45
29 7 14
29 8 112
29 9 107
29 10 2
29 11 36
29 12 113
29 13 46
29 14 86
29 15 105
29 16 25
29 17 34
29 18 78
29 19 94
29 20 44
29 21 63
29 22 100
29 23 27
29 24 85
29 25 9
29 26 47
29 27 112
29 28 18
30 0 100
30 1 43
30 2 77
30 3 117
30 4 43
30 5 68
30 6 45
30 7 51
30 8 66
30 9 78
30 10 20
30 11 100
30 12 87
30 13 30
30 14 33
30 15 4
30 16 67
30 17 105
30 18 19
30 19 14
30 20 105
30 21 17
30 22 68
30 23 104
30 24 38
30 25 30
30 26 81
30 27 38
30 28 41
30 29 111
31 0 7
31 1 47
31 2 11
31 3 21
31 4 108
31 5 69
31 6 118
31 7 80
31 8 99
31 9 101
31 10 29
31 11 62
31 12 16
31 13 78
31 14 75
31 15 87
31 16 54
31 17 57
31 18 117
31 19 88
31 20 112
31 21 25
31 22 61
31 23 80
31 24 77
31 25 66
31 26 114
31 27 33
31 28 90
31 29 3
31 30 97
32 0 88
32 1 70
32 2 50
32 3 57
32 4 83
32 5 86
32 6 73
32 7 118
32 8 36
32 9 85
32 10 31
32 11 67
32 12 9
32 13 120
32 14 82
32 15 31
32 16 104
32 17 33
32 18 116
32 19 55
32 20 29
32 21 23
32 22 12
32 23 102
32 24 8
32 25 31
32 26 82
32 27 27
32 28 19
32 29 43
32 30 72
32 31 43
33 0 22
33 1 12
33 2 56
33 3 71
33 4 27
33 5 12
33 6 2
33 7 113
33 8 86
33 9 91
33 10 71
33 11 115
33 12 84
33 13 28
33 14 43
33 15 72
33 16 53
33 17 74
33 18 6
33 19 88
33 20 3
33 21 66
33 22 32
33 23 28
33 24 57
33 25 88
33 26 74
33 27 79
33 28 39
33 29 18
33 30 43
33 31 110
33 32 110
34 0 106
34 1 15
34 2 74
34 3 85
34 4 103
34 5 5
34 6 97
34 7 52
34 8 115
34 9 42
34 10 45
34 11 103
34 12 27
34 13 17
34 14 42
34 15 54
34 16 26
34 17 8
34 18 93
34 19 42
34 20 75
34 21 113
34 22 11
34 23 32
34 24 98
34 25 84
34 26 109
34 27 35
34 28 105
34 29 15
34 30 99
34 31 93
34 32 26
34 33 23
35 0 84
35 1 82
35 2 4
35 3 17
35 4 39
35 5 17
35 6 112
35 7 55
35 8 65
35 9 8
35 10 85
35 11 52
35 12 40
35 13 6
35 14 5
35 15 120
35 16 32
35 17 116
35 18 56
35 19 3
35 20 37
35 21 111
35 22 12
35 23 21
35 24 18
35 25 66
35 26 98
35 27 12
35 28 30
35 29 84
35 30 105
35 31 72
35 32 46
35 33 14
35 34 35
36 0 106
36 1 47
36 2 73
36 3 44
36 4 25
36 5 52
36 6 95
36 7 15
36 8 56
36 9 113
36 10 55
36 11 88
36 12 54
36 13 113
36 14 7
36 15 116
36 16 119
36 17 81
36 18 118
36 19 55
36 20 13
36 21 61
36 22 61
36 23 23
36 24 96
36 25 75
36 26 80
36 27 54
36 28 38
36 29 118
36 30 45
36 31 41
36 32 104
36 33 63
36 34 72
36 35 48
37 0 19
37 1 81
37 2 42
37 3 9
37 4 29
37 5 58
37 6 103
37 7 117
37 8 58
37 9 9
37 10 18
37 11 30
37 12 96
37 13 34
37 14 110
37 15 49
37 16 33
37 17 56
37 18 45
37 19 68
37 20 111
37 21 120
37 22 65
37 23 101
37 24 29
37 25 4
37 26 13
37 27 38
37 28 74
37 29 29
37 30 92
37 31 5
37 32 4
37 33 112
37 34 98
37 35 80
37 36 50
38 0 73
38 1 35
38 2 114
38 3 69
38 4 96
38 5 118
38 6 9
38 7 92
38 8 109
38 9 3
38 10 67
38 11 8
38 12 27
38 13 7
38 14 30
38 15 37
38 16 61
38 17 4
38 18 71
38 19 17
38 20 79
38 21 16
38 22 27
38 23 61
38 24 54
38 25 67
38 26 69
38 27 76
38 28 40
38 29 110
38 30 1
38 31 24
38 32 91
38 33 71
38 34 82
38 35 60
38 36 71
38 37 53
39 0 32
39 1 63
39 2 54
39 3 47
39 4 116
39 5 51
39 6 21
39 7 11
39 8 83
39 9 94
39 10 85
39 11 67
39 12 39
39 13 64
39 14 120
39 15 46
39 16 37
39 17 77
39 18 104
39 19 17
39 20 116
39 21 87
39 22 104
39 23 115
39 24 62
39 25 34
39 26 62
39 27 33
39 28 62
39 29 27
39 30 73
39 31 54
39 32 13
39 33 107
39 34 37
39 35 88
39 36 71
39 37 84
39 38 31
40 0 64
40 1 109
40 2 12
40 3 7
40 4 23
40 5 21
40 6 70
40 7 74
40 8 91
40 9 56
40 10 93
40 11 54
40 12 35
40 13 32
40 14 120
40 15 93
40 16 87
40 17 48
40 18 87
40 19 2
40 20 51
40 21 52
40 22 104
40 23 17
40 24 109
40 25 88
40 26 96
40 27 98
40 28 43
40 29 83
40 30 72
40 31 48
40 32 103
40 33 106
40 34 104
40 35 31
40 36 65
40 37 16
40 38 5
40 39 106
41 0 12
41 1 82
41 2 28
41 3 89
41 4 36
41 5 1
41 6 109
41 7 120
41 8 45
41 9 3
41 10 106
41 11 49
41 12 77
41 13 68
41 14 63
41 15 3
41 16 66
41 17 66
41 18 21
41 19 75
41 20 2
41 21 23
41 22 9
41 23 105
41 24 106
41 25 117
41 26 49
41 27 86
41 28 79
41 29 61
41 30 14
41 31 49
41 32 6
41 33 48
41 34 94
41 35 43
41 36 105
41 37 78
41 38 74
41 39 66
41 40 44
42 0 39
42 1 33
42 2 22
42 3 111
42 4 59
42 5 30
42 6 118
42 7 106
42 8 79
42 9 103
42 10 14
42 11 104
42 12 18
42 13 28
42 14 94
42 15 82
42 16 37
42 17 81
42 18 107
42 19 116
42 20 37
42 21 49
42 22 52
42 23 114
42 24 114
42 25 69
42 26 37
42 27 9
42 28 111
42 29 108
42 30 109
42 31 40
42 32 28
42 33 65
42 34 77
42 35 69
42 36 89
42 37 110
42 38 14
42 39 11
42 40 24
42 41 64
43 0 99
43 1 40
43 2 13
43 3 28
43 4 44
43 5 54
43 6 25
43 7 25
43 8 92
43 9 15
43 10 78
43 11 97
43 12 29
43 13 94
43 14 113
43 15 4
43 16 58
43 17 21
43 18 36
43 19 5
43 20 57
43 21 4
43 22 7
43 23 37
43 24 34
43 25 14
43 26 17
43 27 17
43 28 32
43 29 112
43 30 103
43 31 71
43 32 97
43 33 3
43 34 64
43 35 24
43 36 61
43 37 55
43 38 68
43 39 115
43 40 24
43 41 118
43 42 19
44 0 46
44 1 68
44 2 8
44 3 81
44 4 90
44 5 119
44 6 74
44 7 41
44 8 88
44 9 113
44 10 26
44 11 107
44 12 14
44 13 22
44 14 21
44 15 26
44 16 22
44 17 47
44 18 78
44 19 21
44 20 7
44 21 12
44 22 81
44 23 25
44 24 18
44 25 7
44 26 111
44 27 35
44 28 32
44 29 43
44 30 54
44 31 48
44 32 37
44 33 119
44 34 90
44 35 67
44 36 50
44 37 73
44 38 104
44 39 18
44 40 3
44 41 83
44 42 66
44 43 6
45 0 38
45 1 54
45 2 52
45 3 77
45 4 104
45 5 6
45 6 104
45 7 120
45 8 62
45 9 9
45 10 119
45 11 78
45 12 102
45 13 35
45 14 112
45 15 83
45 16 88
45 17 14
45 18 51
45 19 30
45 20 92
45 21 43
45 22 13
45 23 59
45 24 86
45 25 21
45 26 45
45 27 92
45 28 19
45 29 28
45 30 62
45 31 52
45 32 117
45 33 70
45 34 57
45 35 75
45 36 55
45 37 88
45 38 62
45 39 108
45 40 118
45 41 105
45 42 73
45 43 61
45 44 94
46 0 37
46 1 42
46 2 105
46 3 16
46 4 56
46 5 82
46 6 39
46 7 102
46 8 22
46 9 84
46 10 36
46 11 27
46 12 118
46 13 52
46 14 64
46 15 64
46 16 70
46 17 41
46 18 116
46 19 96
46 20 109
46 21 89
46 22 36
46 23 71
46 24 39
46 25 86
46 26 65
46 27 98
46 28 99
46 29 116
46 30 116
46 31 119
46 32 48
46 33 86
46 34 21
46 35 36
46 36 110
46 37 95
46 38 47
46 39 56
46 40 6
46 41 25
46 42 13
46 43 42
46 44 27
46 45 13
47 0 69
47 1 73
47 2 84
47 3 102
47 4 117
47 5 2
47 6 118
47 7 51
47 8 17
47 9 21
47 10 55
47 11 87
47 12 16
47 13 80
47 14 95
47 15 29
47 16 18
47 17 5
47 18 62
47 19 19
47 20 64
47 21 11
47 22 111
47 23 3
47 24 90
47 25 30
47 26 2
47 27 47
47 28 93
47 29 20
47 30 42
47 31 18
47 32 17
47 33 91
47 34 102
47 35 52
47 36 77
47 37 36
47 38 119
47 39 41
47 40 47
47 41 36
47 42 117
47 43 93
47 44 93
47 45 37
47 46 81
48 0 26
48 1 66
48 2 106
48 3 75
48 4 35
48 5 112
48 6 27
48 7 30
48 8 32
48 9 80
48 10 55
48 11 4
48 12 118
48 13 34
48 14 49
48 15 59
48 16 105
48 17 6
48 18 29
48 19 6
48 20 111
48 21 41
48 22 78
48 23 18
48 24 108
48 25 52
48 26 15
48 27 34
48 28 6
48 29 112
48 30 75
48 31 86
48 32 28
48 33 48
48 34 94
48 35 16
48 36 15
48 37 94
48 38 27
48 39 50
48 40 106
48 41 90
48 42 108
48 43 41
48 44 69
48 45 19
48 46 37
48 47 108
49 0 11
49 1 8
49 2 9
49 3 55
49 4 60
49 5 14
49 6 42
49 7 15
49 8 114
49 9 26
49 10 98
49 11 96
49 12 67
49 13 95
49 14 55
49 15 118
49 16 7
49 17 14
49 18 28
49 19 35
49 20 119
49 21 40
49 22 40
49 23 10
49 24 84
49 25 47
49 26 98
49 27 105
49 28 66
49 29 104
49 30 66
49 31 35
49 32 2
49 33 40
49 34 113
49 35 94
49 36 72
49 37 4
49 38 97
49 39 51
49 40 86
49 41 79
49 42 52
49 43 40
49 44 3
49 45 83
49 46 65
49 47 88
49 48 96
50 0 79
50 1 100
50 2 73
50 3 49
50 4 11
50 5 46
50 6 56
50 7 100
50 8 18
50 9 95
50 10 81
50 11 117
50 12 25
50 13 17
50 14 37
50 15 18
50 16 92
50 17 10
50 18 82
50 19 97
50 20 75
50 21 63
50 22 99
50 23 85
50 24 8
50 25 98
50 26 61
50 27 99
50 28 62
50 29 45
50 30 99
50 31 101
50 32 119
50 33 27
50 34 31
50 35 2
50 36 24
50 37 89
50 38 90
50 39 76
50 40 19
50 41 81
50 42 35
50 43 61
50 44 90
50 45 40
50 46 108
50 47 24
50 48 55
50 49 31
51 0 22
51 1 97
51 2 31
51 3 114
51 4 91
51 5 73
51 6 61
51 7 64
51 8 20
51 9 106
51 10 13
51 11 24
51 12 18
51 13 85
51 14 54
51 15 117
51 16 56
51 17 60
51 18 104
51 19 22
51 20 56
51 21 73
51 22 65
51 23 58
51 24 23
51 25 38
51 26 27
51 27 65
51 28 87
51 29 120
51 30 10
51 31 69
51 32 8
51 33 29
51 34 71
51 35 50
51 36 87
51 37 23
51 38 31
51 39 92
51 40 89
51 41 69
51 42 82
51 43 99
51 44 120
51 45 120
51 46 20
51 47 59
51 48 112
51 49 54
51 50 92
52 0 98
52 1 112
52 2 33
52 3 96
52 4 33
52 5 20
52 6 115
52 7 110
52 8 25
52 9 70
52 10 47
52 11 39
52 12 57
52 13 37
52 14 75
52 15 110
52 16 6
52 17 84
52 18 28
52 19 20
52 20 26
52 21 86
52 22 76
52 23 25
52 24 68
52 25 61
52 26 33
52 27 53
52 28 113
52 29 30
52 30 36
52 31 54
52 32 120
52 33 77
52 34 17
52 35 30
52 36 14
52 37 88
52 38 37
52 39 11
52 40 92
52 41 93
52 42 16
52 43 30
52 44 69
52 45 53
52 46 35
52 47 75
52 48 77
52 49 65
52 50 48
52 51 11
53 0 1
53 1 2
53 2 7
53 3 102
53 4 23
53 5 4
53 6 119
53 7 26
53 8 16
53 9 31
53 10 26
53 11 88
53 12 25
53 13 79
53 14 62
53 15 48
53 16 111
53 17 65
53 18 57
53 19 47
53 20 61
53 21 69
53 22 101
53 23 87
53 24 71
53 25 2
53 26 28
53 27 69
53 28 72
53 29 47
53 30 21
53 31 37
53 32 72
53 33 44
53 34 2
53 35 39
53 36 89
53 37 69
53 38 44
53 39 50
53 40 53
53 41 63
53 42 4
53 43 16
53 44 119
53 45 7
53 46 63
53 47 45
53 48 52
53 49 95
53 50 79
53 51 31
53 52 60
54 0 68
54 1 101
54 2 102
54 3 34
54 4 112
54 5 9
54 6 64
54 7 98
54 8 11
54 9 91
54 10 106
54 11 84
54 12 93
54 13 89
54 14 45
54 15 64
54 16 20
54 17 39
54 18 46
54 19 83
54 20 84
54 21 14
54 22 30
54 23 101
54 24 37
54 25 111
54 26 38
54 27 4
54 28 75
54 29 14
54 30 36
54 31 59
54 32 11
54 33 14
54 34 39
54 35 36
54 36 112
54 37 111
54 38 64
54 39 73
54 40 69
54 41 116
54 42 15
54 43 16
54 44 106
54 45 58
54 46 14
54 47 117
54 48 38
54 49 47
54 50 35
54 51 13
54 52 111
54 53 37
55 0 19
55 1 12
55 2 79
55 3 6
55 4 93
55 5 88
55 6 64
55 7 5
55 8 88
55 9 96
55 10 78
55 11 24
55 12 105
55 13 16
55 14 113
55 15 39
55 16 39
55 17 72
55 18 35
55 19 16
55 20 115
55 21 98
55 22 47
55 23 43
55 24 55
55 25 65
55 26 45
55 27 71
55 28 63
55 29 22
55 30 32
55 31 97
55 32 105
55 33 107
55 34 71
55 35 88
55 36 17
55 37 7
55 38 94
55 39 56
55 40 95
55 41 33
55 42 37
55 43 10
55 44 80
55 45 120
55 46 60
55 47 14
55 48 91
55 49 75
55 50 72
55 51 4
55 52 39
55 53 71
55 54 55
56 0 32
56 1 65
56 2 77
56 3 115
56 4 41
56 5 14
56 6 69
56 7 12
56 8 12
56 9 84
56 10 1
56 11 24
56 12 20
56 13 5
56 14 112
56 15 94
56 16 18
56 17 13
56 18 15
56 19 10
56 20 14
56 21 83
56 22 90
56 23 20
56 24 45
56 25 22
56 26 80
56 27 20
56 28 94
56 29 75
56 30 23
56 31 14
56 32 101
56 33 12
56 34 66
56 35 42
56 36 48
56 37 15
56 38 7
56 39 62
56 40 99
56 41 78
56 42 99
56 43 71
56 44 103
56 45 88
56 46 70
56 47 64
56 48 66
56 49 16
56 50 107
56 51 45
56 52 109
56 53 22
56 54 96
56 55 111
57 0 38
57 1 108
57 2 85
57 3 49
57 4 90
57 5 12
57 6 12
57 7 82
57 8 38
57 9 108
57 10 35
57 11 110
57 12 88
57 13 8
57 14 48
57 15 88
57 16 88
57 17 104
57 18 23
57 19 37
57 20 61
57 21 65
57 22 59
57 23 2
57 24 78
57 25 64
57 26 39
57 27 45
57 28 32
57 29 4
57 30 119
57 31 70
57 32 22
57 33 61
57 34 84
57 35 100
57 36 52
57 37 27
57 38 58
57 39 17
57 40 50
57 41 16
57 42 66
57 43 61
57 44 52
57 45 37
57 46 31
57 47 61
57 48 66
57 49 3
57 50 44
57 51 87
57 52 109
57 53 25
57 54 30
57 55 69
57 56 110
58 0 74
58 1 34
58 2 53
58 3 7
58 4 22
58 5 64
58 6 24
58 7 21
58 8 40
58 9 51
58 10 64
58 11 49
58 12 19
58 13 12
58 14 69
58 15 37
58 16 97
58 17 72
58 18 103
58 19 76
58 20 55
58 21 14
58 22 66
58 23 109
58 24 87
58 25 106
58 26 55
58 27 105
58 28 45
58 29 58
58 30 45
58 31 23
58 32 87
58 33 78
58 34 63
58 35 19
58 36 4
58 37 108
58 38 55
58 39 39
58 40 103
58 41 50
58 42 61
58 43 26
58 44 11
58 45 22
58 46 66
58 47 59
58 48 22
58 49 20
58 50 119
58 51 49
58 52 98
58 53 20
58 54 106
58 55 29
58 56 110
58 57 61
59 0 93
59 1 17
59 2 112
59 3 93
59 4 90
59 5 71
59 6 75
59 7 31
59 8 71
59 9 37
59 10 102
59 11 87
59 12 13
59 13 53
59 14 11
59 15 105
59 16 14
59 17 29
59 18 85
59 19 44
59 20 66
59 21 83
59 22 20
59 23 47
59 24 78
59 25 81
59 26 87
59 27 26
59 28 37
59 29 83
59 30 33
59 31 12
59 32 117
59 33 31
59 34 51
59 35 66
59 36 80
59 37 51
59 38 115
59 39 90
59 40 119
59 41 10
59 42 22
59 43 87
59 44 41
59 45 118
59 46 1
59 47 67
59 48 59
59 49 81
59 50 67
59 51 72
59 52 42
59 53 92
59 54 86
59 55 82
59 56 80
59 57 13
59 58 3
